; PUSH cw_4 DUP1 PUSH cw_3 SWAP2 POP => PUSH cw_3 PUSH cw_4
(set-option :produce-proofs true)
; 
(set-info :status unknown)
(declare-fun storage_t ((_ BitVec 256) (_ BitVec 256) Int (_ BitVec 256)) (_ BitVec 256))
(declare-fun w_3 () (_ BitVec 256))
(declare-fun w_4 () (_ BitVec 256))
(declare-fun storage_s ((_ BitVec 256) (_ BitVec 256) Int (_ BitVec 256)) (_ BitVec 256))
(declare-fun exc_halt_t (Int) Bool)
(declare-fun exc_halt_s (Int) Bool)
(declare-fun sc_t (Int) (_ BitVec 6))
(declare-fun stack_t ((_ BitVec 256) (_ BitVec 256) Int (_ BitVec 6)) (_ BitVec 256))
(declare-fun stack_s ((_ BitVec 256) (_ BitVec 256) Int (_ BitVec 6)) (_ BitVec 256))
(declare-fun sc_s (Int) (_ BitVec 6))
(declare-fun used_gas_t ((_ BitVec 256) (_ BitVec 256) Int) Int)
(declare-fun used_gas_s ((_ BitVec 256) (_ BitVec 256) Int) Int)
(assert
 (let (($x2454 (forall ((w (_ BitVec 256)) )(let ((?x5131 (storage_t w_4 w_3 2 w)))
 (let ((?x953 (storage_s w_4 w_3 5 w)))
 (= ?x953 ?x5131))))
 ))
 (let (($x903 (exc_halt_t 2)))
 (let (($x3979 (exc_halt_s 5)))
 (let (($x5590 (= $x3979 $x903)))
 (let (($x9285 (forall ((n (_ BitVec 6)) )(let ((?x4056 (sc_t 2)))
 (let (($x2976 (bvsle ?x4056 n)))
 (let ((?x1444 (stack_t w_4 w_3 2 n)))
 (let ((?x635 (stack_s w_4 w_3 5 n)))
 (let (($x1730 (= ?x635 ?x1444)))
 (or $x1730 $x2976)))))))
 ))
 (let ((?x4056 (sc_t 2)))
 (let ((?x805 (sc_s 5)))
 (let (($x11014 (= ?x805 ?x4056)))
 (let ((?x3562 (used_gas_t w_4 w_3 0)))
 (let ((?x4150 (used_gas_s w_4 w_3 0)))
 (let (($x6670 (= ?x4150 ?x3562)))
 (let (($x3637 (forall ((w (_ BitVec 256)) )(let ((?x8497 (storage_t w_4 w_3 0 w)))
 (let ((?x9353 (storage_s w_4 w_3 0 w)))
 (= ?x9353 ?x8497))))
 ))
 (let (($x56 (exc_halt_t 0)))
 (let (($x57 (exc_halt_s 0)))
 (let (($x58 (= $x57 $x56)))
 (let (($x8340 (forall ((n (_ BitVec 6)) )(let ((?x63 (sc_t 0)))
 (let (($x10780 (bvsle ?x63 n)))
 (let ((?x7687 (stack_t w_4 w_3 0 n)))
 (let ((?x4725 (stack_s w_4 w_3 0 n)))
 (let (($x1560 (= ?x4725 ?x7687)))
 (or $x1560 $x10780)))))))
 ))
 (let ((?x63 (sc_t 0)))
 (let ((?x72 (sc_s 0)))
 (let (($x73 (= ?x72 ?x63)))
 (let (($x7658 (not (= ((_ extract 6 6) (bvadd (_ bv1 7) (concat (_ bv0 1) (sc_t 1)))) (_ bv0 1)))))
 (let (($x1920 (exc_halt_t 1)))
 (let (($x9636 (forall ((w (_ BitVec 256)) )(let ((?x3167 (storage_t w_4 w_3 1 w)))
 (let ((?x5131 (storage_t w_4 w_3 2 w)))
 (= ?x5131 ?x3167))))
 ))
 (let (($x6455 (forall ((n (_ BitVec 6)) )(or (= (stack_t w_4 w_3 2 n) (stack_t w_4 w_3 1 n)) (bvsle (sc_t 1) n)))
 ))
 (let (($x1474 (= ?x4056 (bvadd (_ bv1 6) (sc_t 1)))))
 (let (($x7734 (= (used_gas_t w_4 w_3 2) (+ 3 (used_gas_t w_4 w_3 1)))))
 (let (($x10495 (= $x1920 (or $x56 (not (= ((_ extract 6 6) (bvadd (_ bv1 7) (concat (_ bv0 1) ?x63))) (_ bv0 1)))))))
 (let (($x7541 (forall ((w (_ BitVec 256)) )(let ((?x8497 (storage_t w_4 w_3 0 w)))
 (let ((?x3167 (storage_t w_4 w_3 1 w)))
 (= ?x3167 ?x8497))))
 ))
 (let (($x4088 (forall ((n (_ BitVec 6)) )(let ((?x63 (sc_t 0)))
 (let (($x10780 (bvsle ?x63 n)))
 (or (= (stack_t w_4 w_3 1 n) (stack_t w_4 w_3 0 n)) $x10780))))
 ))
 (let ((?x4023 (sc_t 1)))
 (let (($x5045 (= ?x4023 (bvadd (_ bv1 6) ?x63))))
 (let (($x3716 (= $x3979 (or (exc_halt_s 4) (not (bvsle (_ bv0 6) (bvadd (_ bv63 6) (sc_s 4))))))))
 (let (($x10322 (forall ((w (_ BitVec 256)) )(let ((?x7102 (storage_s w_4 w_3 4 w)))
 (let ((?x953 (storage_s w_4 w_3 5 w)))
 (= ?x953 ?x7102))))
 ))
 (let (($x2331 (forall ((n (_ BitVec 6)) )(let ((?x4305 (sc_s 4)))
 (let ((?x6773 (bvadd (_ bv63 6) ?x4305)))
 (let (($x504 (bvsle ?x6773 n)))
 (or $x504 (= (stack_s w_4 w_3 5 n) (stack_s w_4 w_3 4 n)))))))
 ))
 (let ((?x4305 (sc_s 4)))
 (let ((?x6773 (bvadd (_ bv63 6) ?x4305)))
 (let (($x9426 (= ?x805 ?x6773)))
 (let (($x6015 (= (used_gas_s w_4 w_3 5) (+ 2 (used_gas_s w_4 w_3 4)))))
 (let (($x64 (exc_halt_s 4)))
 (let (($x608 (= $x64 (or (exc_halt_s 3) (not (bvsle (_ bv0 6) (bvadd (_ bv61 6) (sc_s 3))))))))
 (let (($x420 (forall ((w (_ BitVec 256)) )(let ((?x3666 (storage_s w_4 w_3 3 w)))
 (let ((?x7102 (storage_s w_4 w_3 4 w)))
 (= ?x7102 ?x3666))))
 ))
 (let (($x10194 (forall ((n (_ BitVec 6)) )(let ((?x275 (sc_s 3)))
 (let ((?x4954 (bvadd (_ bv61 6) ?x275)))
 (let (($x7142 (bvsle ?x4954 n)))
 (or (= (stack_s w_4 w_3 4 n) (stack_s w_4 w_3 3 n)) $x7142)))))
 ))
 (let ((?x275 (sc_s 3)))
 (let (($x8024 (= ?x4305 ?x275)))
 (let ((?x10218 (used_gas_s w_4 w_3 4)))
 (let (($x5212 (= (stack_s w_4 w_3 4 (bvadd (_ bv62 6) ?x4305)) (stack_s w_4 w_3 3 (bvadd (_ bv62 6) ?x275)))))
 (let (($x844 (= (stack_s w_4 w_3 4 (bvadd (_ bv61 6) ?x4305)) (stack_s w_4 w_3 3 (bvadd (_ bv63 6) ?x275)))))
 (let (($x7274 (= (stack_s w_4 w_3 4 ?x6773) (stack_s w_4 w_3 3 (bvadd (_ bv61 6) ?x275)))))
 (let (($x247 (exc_halt_s 2)))
 (let (($x8518 (or $x247 (not (= ((_ extract 6 6) (bvadd (_ bv1 7) (concat (_ bv0 1) (sc_s 2)))) (_ bv0 1))))))
 (let (($x292 (exc_halt_s 3)))
 (let (($x7224 (= $x292 $x8518)))
 (let (($x7004 (forall ((w (_ BitVec 256)) )(let ((?x11354 (storage_s w_4 w_3 2 w)))
 (let ((?x3666 (storage_s w_4 w_3 3 w)))
 (= ?x3666 ?x11354))))
 ))
 (let (($x6114 (forall ((n (_ BitVec 6)) )(let ((?x218 (sc_s 2)))
 (let (($x9668 (bvsle ?x218 n)))
 (or $x9668 (= (stack_s w_4 w_3 3 n) (stack_s w_4 w_3 2 n))))))
 ))
 (let (($x4630 (= ?x275 (bvadd (_ bv1 6) (sc_s 2)))))
 (let ((?x9625 (used_gas_s w_4 w_3 3)))
 (let (($x10183 (not (bvsle (_ bv0 6) (bvadd (_ bv63 6) (sc_s 1))))))
 (let (($x2045 (not (= ((_ extract 6 6) (bvadd (_ bv1 7) (concat (_ bv0 1) (sc_s 1)))) (_ bv0 1)))))
 (let (($x189 (exc_halt_s 1)))
 (let (($x8776 (forall ((w (_ BitVec 256)) )(let ((?x248 (storage_s w_4 w_3 1 w)))
 (let ((?x11354 (storage_s w_4 w_3 2 w)))
 (= ?x11354 ?x248))))
 ))
 (let (($x9119 (forall ((n (_ BitVec 6)) )(let ((?x154 (sc_s 1)))
 (let ((?x2267 (bvadd (_ bv63 6) ?x154)))
 (let (($x9040 (bvsle ?x2267 n)))
 (or (= (stack_s w_4 w_3 2 n) (stack_s w_4 w_3 1 n)) $x9040)))))
 ))
 (let ((?x218 (sc_s 2)))
 (let (($x1095 (= ?x218 (bvadd (_ bv1 6) (sc_s 1)))))
 (let ((?x2170 (used_gas_s w_4 w_3 2)))
 (let ((?x154 (sc_s 1)))
 (let ((?x2267 (bvadd (_ bv63 6) ?x154)))
 (let ((?x6663 (stack_s w_4 w_3 1 ?x2267)))
 (let (($x3426 (= $x189 (or $x57 (not (= ((_ extract 6 6) (bvadd (_ bv1 7) (concat (_ bv0 1) ?x72))) (_ bv0 1)))))))
 (let (($x1004 (forall ((w (_ BitVec 256)) )(let ((?x9353 (storage_s w_4 w_3 0 w)))
 (let ((?x248 (storage_s w_4 w_3 1 w)))
 (= ?x248 ?x9353))))
 ))
 (let (($x10551 (forall ((n (_ BitVec 6)) )(or (bvsle (sc_s 0) n) (= (stack_s w_4 w_3 1 n) (stack_s w_4 w_3 0 n))))
 ))
 (let (($x5613 (= ?x154 (bvadd (_ bv1 6) ?x72))))
 (let (($x11323 (forall ((w (_ BitVec 256)) )(let ((?x9353 (storage_s w_4 w_3 0 w)))
 (= ?x9353 (_ bv0 256))))
 ))
 (let (($x4794 (= ?x4150 0)))
 (let (($x9872 (not $x57)))
 (let (($x136 (= ?x72 (_ bv0 6))))
 (and $x136 $x9872 $x4794 $x11323 (= (stack_s w_4 w_3 1 ?x72) w_4) (= (used_gas_s w_4 w_3 1) (+ 3 ?x4150)) $x5613 $x10551 $x1004 $x3426 (= (stack_s w_4 w_3 2 (bvadd (_ bv63 6) ?x218)) ?x6663) (= (stack_s w_4 w_3 2 ?x2267) ?x6663) (= ?x2170 (+ 3 (used_gas_s w_4 w_3 1))) $x1095 $x9119 $x8776 (= $x247 (or $x189 $x2045 $x10183)) (= (stack_s w_4 w_3 3 ?x218) w_3) (= ?x9625 (+ 3 ?x2170)) $x4630 $x6114 $x7004 $x7224 $x7274 $x844 $x5212 (= ?x10218 (+ 3 ?x9625)) $x8024 $x10194 $x420 $x608 $x6015 $x9426 $x2331 $x10322 $x3716 (= (stack_t w_4 w_3 1 ?x63) w_3) (= (used_gas_t w_4 w_3 1) (+ 3 ?x3562)) $x5045 $x4088 $x7541 $x10495 (= (stack_t w_4 w_3 2 ?x4023) w_4) $x7734 $x1474 $x6455 $x9636 (= $x903 (or $x1920 $x7658)) $x73 $x8340 $x58 $x3637 $x6670 (not (and $x11014 $x9285 $x5590 $x2454))))))))))))))))))))))))))))))))))))))))))))))))))))))))))))))))))))))))))))))
(check-sat)
(get-proof)
